58
150
105	3
104	3
101	1
100	1
99	2
98	2
97	1
94	3
93	1
91	1
90	1
88	2
87	5
86	1
85	1
84	1
82	2
81	1
79	2
77	1
75	3
74	2
73	2
72	4
71	3
70	4
68	4
67	3
65	1
64	3
63	1
62	1
61	1
60	1
59	1
58	3
56	1
54	1
53	1
52	1
51	3
49	1
48	2
47	1
46	1
45	1
43	1
42	1
41	2
40	1
38	1
37	1
36	1
34	1
33	1
32	1
31	1
30	3
